47
Coordinates from ORCA-job orca E -3371.347556327568
  C          27.06800098930048     21.42000000424306     38.70100001404587
  C          28.26653797010690     21.22162573526146     37.79823948111667
  S          27.85014403293719     20.15560899966683     36.37627427044961
  H          26.73037500337545     20.46585707063382     39.11326674191100
  H          27.31338014221140     22.08511253599153     39.53509785754656
  H          26.23328923543731     21.86155746656064     38.15051526330438
  H          29.09037474679009     20.76738350429827     38.35292667939055
  H          28.62225888220081     22.18527291461899     37.42503025286634
  C          29.20599900159417     16.45400000155027     38.81900000095777
  C          29.72882272933022     17.87558757314757     38.82546757078408
  S          31.02032360776220     18.18491689767147     37.56849571020112
  H          30.01376614025751     15.73679505434358     38.98420434984664
  H          28.45805229949907     16.31325730102056     39.60636929555098
  H          30.16452982437058     18.11067433490222     39.79956274239639
  H          28.90887663738564     18.57590567902611     38.65513082495274
  H          28.73873586096397     16.21727307999968     37.85939331962641
  C          32.73400100728436     18.40500099353502     32.86099999044177
  C          32.97889533704961     19.04777204594049     34.22344794559558
  C          32.33035277050392     20.38019157945060     34.36717533361414
  C          32.77091340125455     21.60340576457578     33.94620900224183
  N          31.09026049902000     20.54864357718170     34.94374816789882
  C          30.79457237279688     21.83173291549533     34.87087539658408
  N          31.78724299837300     22.49770198004679     34.27287565409769
  H          33.20480200256284     17.42062452335701     32.81062935924020
  H          31.66599080059377     18.28196052317687     32.67192644761221
  H          34.05431803305290     19.15778603567153     34.38516774364027
  H          32.60660964869887     18.39151656311729     35.01529742467962
  H          33.14989433929173     19.02307969207323     32.06214424456888
  H          33.67944628269369     21.90542594645959     33.45256967361630
  H          29.88824335076084     22.28937136041289     35.23417847251615
  H          31.80682763578910     23.49099307735630     34.10263891619052
  C          27.68199900182097     19.75900100067164     31.50699999455457
  C          28.63221385164568     19.63480071993141     32.68362565776803
  C          28.94212669697288     18.22995032142958     33.06375631086949
  C          28.81918991825740     17.07616866107957     32.34250841891582
  N          29.46668070233619     17.90748344548164     34.29769474547335
  C          29.65729740388887     16.60339800060461     34.31602870108414
  N          29.27759646903228     16.06934965583280     33.15152638629061
  H          26.72247554599647     19.28351434552182     31.72420188868036
  H          27.49638084894302     20.80971836531011     31.27782674596819
  H          28.21940100604526     20.14187307107007     33.56109315067035
  H          29.57066729442014     20.15440177110805     32.45816141751064
  H          28.45584102249456     16.88627244491906     31.34699875050898
  H          30.05604593815660     16.03711689662400     35.14272778287799
  H          29.31446725790185     15.08990592451177     32.91656213506030
  H          28.09274039909524     19.29049986380338     30.60904160164054
  Zn         29.85672755977360     19.17748542993012     35.86158038980194
