TD.TIMESTEP 0.5
 

SOLUTIONMETHOD diagon
 

XC.AUTHORS PBE
 

TD.COREPERTURBATIONCHARGE 0.02
 

MAXSCFITERATIONS 100
 

PAO.BASISSIZE DZP
 

%block ATOMICCOORDINATESANDATOMICSPECIES
-0.4375 -0.4375 -0.4375 1
-0.4375 -0.1875 -0.1875 1
-0.1875 -0.4375 -0.1875 1
-0.1875 -0.1875 -0.4375 1
-0.0625 -0.3125 -0.3125 1
-0.0625 -0.0625 -0.0625 1
-0.3125 -0.3125 -0.0625 1
-0.3125 -0.0625 -0.3125 1
-0.4375 -0.4375 0.0625 1
-0.4375 -0.1875 0.3125 1
-0.1875 -0.4375 0.3125 1
-0.1875 -0.1875 0.0625 1
-0.0625 -0.3125 0.1875 1
-0.0625 -0.0625 0.4375 1
-0.3125 -0.3125 0.4375 1
-0.3125 -0.0625 0.1875 1
-0.4375 0.0625 -0.4375 1
-0.4375 0.3125 -0.1875 1
-0.1875 0.0625 -0.1875 1
-0.1875 0.3125 -0.4375 1
-0.0625 0.1875 -0.3125 1
-0.0625 0.4375 -0.0625 1
-0.3125 0.1875 -0.0625 1
-0.3125 0.4375 -0.3125 1
-0.4375 0.0625 0.0625 1
-0.4375 0.3125 0.3125 1
-0.1875 0.0625 0.3125 1
-0.1875 0.3125 0.0625 1
-0.0625 0.1875 0.1875 1
-0.0625 0.4375 0.4375 1
-0.3125 0.1875 0.4375 1
-0.3125 0.4375 0.1875 1
0.0625 -0.4375 -0.4375 1
0.0625 -0.1875 -0.1875 1
0.3125 -0.4375 -0.1875 1
0.3125 -0.1875 -0.4375 1
0.4375 -0.3125 -0.3125 1
0.4375 -0.0625 -0.0625 1
0.1875 -0.3125 -0.0625 1
0.1875 -0.0625 -0.3125 1
0.0625 -0.4375 0.0625 1
0.0625 -0.1875 0.3125 1
0.3125 -0.4375 0.3125 1
0.3125 -0.1875 0.0625 1
0.4375 -0.3125 0.1875 1
0.4375 -0.0625 0.4375 1
0.1875 -0.3125 0.4375 1
0.1875 -0.0625 0.1875 1
0.0625 0.0625 -0.4375 1
0.0625 0.3125 -0.1875 1
0.3125 0.0625 -0.1875 1
0.3125 0.3125 -0.4375 1
0.4375 0.1875 -0.3125 1
0.4375 0.4375 -0.0625 1
0.1875 0.1875 -0.0625 1
0.1875 0.4375 -0.3125 1
0.0625 0.0625 0.0625 1
0.0625 0.3125 0.3125 1
0.3125 0.0625 0.3125 1
0.3125 0.3125 0.0625 1
0.4375 0.1875 0.1875 1
0.4375 0.4375 0.4375 1
0.1875 0.1875 0.4375 1
0.1875 0.4375 0.1875 1
%endblock ATOMICCOORDINATESANDATOMICSPECIES

LATTICECONSTANT 10.86 Ang
 

TD.SHAPEOFEFIELD core
 

%block LATTICEPARAMETERS
1.0 1.0 1.0 90.0 90.0 90.0
%endblock LATTICEPARAMETERS

TD.MXPC 2
 

NUMBEROFATOMS 64
 

ELECTRONICTEMPERATURE 1.0 K
 

PAO.BASISTYPE split
 

TD.COREEXCITEDATOM 10
 

MESHCUTOFF 120.0 Ry
 

TD.NUMBEROFTIMESTEPS 100
 

DM.MIXINGWEIGHT 0.1
 

LONGOUTPUT True
 

NUMBEROFSPECIES 1
 

DM.TOLERANCE 0.0001
 

ATOMICCOORDINATESFORMAT Fractional
 

%block CHEMICALSPECIESLABEL
1 14 Si
%endblock CHEMICALSPECIESLABEL

XC.FUNCTIONAL GGA
 
